; CALLVALUE SWAP1 PUSH cw_2 SWAP1 DUP2 SWAP1 => PUSH cw_2 PUSH cw_2 CALLVALUE SWAP3
(set-option :produce-proofs true)
; 
(set-info :status unknown)
(declare-fun storage_t ((_ BitVec 256) (_ BitVec 256) (_ BitVec 256) Int (_ BitVec 256)) (_ BitVec 256))
(declare-fun w_2 () (_ BitVec 256))
(declare-fun storage_s ((_ BitVec 256) (_ BitVec 256) (_ BitVec 256) Int (_ BitVec 256)) (_ BitVec 256))
(declare-fun exc_halt_t (Int) Bool)
(declare-fun exc_halt_s (Int) Bool)
(declare-fun stack_t ((_ BitVec 256) (_ BitVec 256) (_ BitVec 256) Int (_ BitVec 6)) (_ BitVec 256))
(declare-fun stack_s ((_ BitVec 256) (_ BitVec 256) (_ BitVec 256) Int (_ BitVec 6)) (_ BitVec 256))
(declare-fun sc_t (Int) (_ BitVec 6))
(declare-fun sc_s (Int) (_ BitVec 6))
(declare-fun used_gas_t ((_ BitVec 256) (_ BitVec 256) (_ BitVec 256) Int) Int)
(declare-fun used_gas_s ((_ BitVec 256) (_ BitVec 256) (_ BitVec 256) Int) Int)
(assert
 (exists ((x_0 (_ BitVec 256)) (x_CALLVALUE (_ BitVec 256)) )(let (($x3139 (forall ((w (_ BitVec 256)) )(let ((?x3793 (storage_t x_0 w_2 x_CALLVALUE 4 w)))
 (let ((?x5088 (storage_s x_0 w_2 x_CALLVALUE 6 w)))
 (= ?x5088 ?x3793))))
 ))
 (let (($x7854 (exc_halt_t 4)))
 (let (($x772 (exc_halt_s 6)))
 (let (($x4404 (= $x772 $x7854)))
 (let (($x3283 (forall ((n (_ BitVec 6)) )(let ((?x3092 (stack_t x_0 w_2 x_CALLVALUE 4 n)))
 (let ((?x3427 (stack_s x_0 w_2 x_CALLVALUE 6 n)))
 (let (($x7712 (= ?x3427 ?x3092)))
 (let ((?x4818 (sc_t 4)))
 (let (($x5613 (bvsle ?x4818 n)))
 (or $x5613 $x7712)))))))
 ))
 (let ((?x4818 (sc_t 4)))
 (let ((?x926 (sc_s 6)))
 (let (($x7899 (= ?x926 ?x4818)))
 (let ((?x5752 (used_gas_t x_0 w_2 x_CALLVALUE 0)))
 (let ((?x10858 (used_gas_s x_0 w_2 x_CALLVALUE 0)))
 (let (($x2118 (= ?x10858 ?x5752)))
 (let (($x2337 (forall ((w (_ BitVec 256)) )(let ((?x1593 (storage_t x_0 w_2 x_CALLVALUE 0 w)))
 (let ((?x9252 (storage_s x_0 w_2 x_CALLVALUE 0 w)))
 (= ?x9252 ?x1593))))
 ))
 (let (($x56 (exc_halt_t 0)))
 (let (($x57 (exc_halt_s 0)))
 (let (($x58 (= $x57 $x56)))
 (let (($x165 (forall ((n (_ BitVec 6)) )(let ((?x63 (sc_t 0)))
 (let (($x4174 (bvsle ?x63 n)))
 (let ((?x3472 (stack_t x_0 w_2 x_CALLVALUE 0 n)))
 (let ((?x7414 (stack_s x_0 w_2 x_CALLVALUE 0 n)))
 (let (($x1629 (= ?x7414 ?x3472)))
 (or $x1629 $x4174)))))))
 ))
 (let ((?x63 (sc_t 0)))
 (let ((?x72 (sc_s 0)))
 (let (($x73 (= ?x72 ?x63)))
 (let (($x7568 (= $x7854 (or (exc_halt_t 3) (not (bvsle (_ bv0 6) (bvadd (_ bv60 6) (sc_t 3))))))))
 (let (($x1018 (forall ((w (_ BitVec 256)) )(let ((?x404 (storage_t x_0 w_2 x_CALLVALUE 3 w)))
 (let ((?x3793 (storage_t x_0 w_2 x_CALLVALUE 4 w)))
 (= ?x3793 ?x404))))
 ))
 (let (($x4576 (forall ((n (_ BitVec 6)) )(let ((?x11304 (sc_t 3)))
 (let ((?x1123 (bvadd (_ bv60 6) ?x11304)))
 (let (($x5100 (bvsle ?x1123 n)))
 (let ((?x9517 (stack_t x_0 w_2 x_CALLVALUE 3 n)))
 (let ((?x3092 (stack_t x_0 w_2 x_CALLVALUE 4 n)))
 (or (= ?x3092 ?x9517) $x5100)))))))
 ))
 (let ((?x11304 (sc_t 3)))
 (let (($x5005 (= ?x4818 ?x11304)))
 (let (($x9491 (= (used_gas_t x_0 w_2 x_CALLVALUE 4) (+ 3 (used_gas_t x_0 w_2 x_CALLVALUE 3)))))
 (let (($x9680 (= (stack_t x_0 w_2 x_CALLVALUE 4 (bvadd (_ bv62 6) ?x4818)) (stack_t x_0 w_2 x_CALLVALUE 3 (bvadd (_ bv62 6) ?x11304)))))
 (let (($x1243 (= (stack_t x_0 w_2 x_CALLVALUE 4 (bvadd (_ bv61 6) ?x4818)) (stack_t x_0 w_2 x_CALLVALUE 3 (bvadd (_ bv61 6) ?x11304)))))
 (let (($x5606 (= (stack_t x_0 w_2 x_CALLVALUE 4 (bvadd (_ bv60 6) ?x4818)) (stack_t x_0 w_2 x_CALLVALUE 3 (bvadd (_ bv63 6) ?x11304)))))
 (let (($x4352 (= (stack_t x_0 w_2 x_CALLVALUE 4 (bvadd (_ bv63 6) ?x4818)) (stack_t x_0 w_2 x_CALLVALUE 3 (bvadd (_ bv60 6) ?x11304)))))
 (let (($x922 (not (= ((_ extract 6 6) (bvadd (_ bv1 7) (concat (_ bv0 1) (sc_t 2)))) (_ bv0 1)))))
 (let (($x11434 (exc_halt_t 2)))
 (let (($x3614 (exc_halt_t 3)))
 (let (($x2497 (= $x3614 (or $x11434 $x922))))
 (let (($x9925 (forall ((w (_ BitVec 256)) )(let ((?x8173 (storage_t x_0 w_2 x_CALLVALUE 2 w)))
 (let ((?x404 (storage_t x_0 w_2 x_CALLVALUE 3 w)))
 (= ?x404 ?x8173))))
 ))
 (let (($x5303 (forall ((n (_ BitVec 6)) )(let ((?x1903 (stack_t x_0 w_2 x_CALLVALUE 2 n)))
 (let ((?x9517 (stack_t x_0 w_2 x_CALLVALUE 3 n)))
 (let ((?x6158 (sc_t 2)))
 (let (($x263 (bvsle ?x6158 n)))
 (or $x263 (= ?x9517 ?x1903)))))))
 ))
 (let (($x1244 (= ?x11304 (bvadd (_ bv1 6) (sc_t 2)))))
 (let ((?x9834 (used_gas_t x_0 w_2 x_CALLVALUE 3)))
 (let (($x10144 (not (= ((_ extract 6 6) (bvadd (_ bv1 7) (concat (_ bv0 1) (sc_t 1)))) (_ bv0 1)))))
 (let (($x8377 (exc_halt_t 1)))
 (let (($x2267 (= $x11434 (or $x8377 $x10144))))
 (let (($x4694 (forall ((w (_ BitVec 256)) )(let ((?x3911 (storage_t x_0 w_2 x_CALLVALUE 1 w)))
 (let ((?x8173 (storage_t x_0 w_2 x_CALLVALUE 2 w)))
 (= ?x8173 ?x3911))))
 ))
 (let (($x8644 (forall ((n (_ BitVec 6)) )(let ((?x7154 (sc_t 1)))
 (let (($x5538 (bvsle ?x7154 n)))
 (let ((?x7219 (stack_t x_0 w_2 x_CALLVALUE 1 n)))
 (let ((?x1903 (stack_t x_0 w_2 x_CALLVALUE 2 n)))
 (or (= ?x1903 ?x7219) $x5538))))))
 ))
 (let ((?x6158 (sc_t 2)))
 (let (($x10587 (= ?x6158 (bvadd (_ bv1 6) (sc_t 1)))))
 (let ((?x6491 (used_gas_t x_0 w_2 x_CALLVALUE 2)))
 (let (($x7894 (= $x8377 (or $x56 (not (= ((_ extract 6 6) (bvadd (_ bv1 7) (concat (_ bv0 1) ?x63))) (_ bv0 1)))))))
 (let (($x7729 (forall ((w (_ BitVec 256)) )(let ((?x1593 (storage_t x_0 w_2 x_CALLVALUE 0 w)))
 (let ((?x3911 (storage_t x_0 w_2 x_CALLVALUE 1 w)))
 (= ?x3911 ?x1593))))
 ))
 (let (($x4388 (forall ((n (_ BitVec 6)) )(let ((?x3472 (stack_t x_0 w_2 x_CALLVALUE 0 n)))
 (let ((?x7219 (stack_t x_0 w_2 x_CALLVALUE 1 n)))
 (let ((?x63 (sc_t 0)))
 (let (($x4174 (bvsle ?x63 n)))
 (or $x4174 (= ?x7219 ?x3472)))))))
 ))
 (let ((?x7154 (sc_t 1)))
 (let (($x3399 (= ?x7154 (bvadd (_ bv1 6) ?x63))))
 (let (($x7518 (= $x772 (or (exc_halt_s 5) (not (bvsle (_ bv0 6) (bvadd (_ bv62 6) (sc_s 5))))))))
 (let (($x2586 (forall ((w (_ BitVec 256)) )(let ((?x358 (storage_s x_0 w_2 x_CALLVALUE 5 w)))
 (let ((?x5088 (storage_s x_0 w_2 x_CALLVALUE 6 w)))
 (= ?x5088 ?x358))))
 ))
 (let (($x2056 (forall ((n (_ BitVec 6)) )(let ((?x4319 (sc_s 5)))
 (let ((?x6395 (bvadd (_ bv62 6) ?x4319)))
 (let (($x11029 (bvsle ?x6395 n)))
 (let ((?x1001 (stack_s x_0 w_2 x_CALLVALUE 5 n)))
 (let ((?x3427 (stack_s x_0 w_2 x_CALLVALUE 6 n)))
 (or (= ?x3427 ?x1001) $x11029)))))))
 ))
 (let ((?x4319 (sc_s 5)))
 (let (($x4127 (= ?x926 ?x4319)))
 (let (($x7527 (= (used_gas_s x_0 w_2 x_CALLVALUE 6) (+ 3 (used_gas_s x_0 w_2 x_CALLVALUE 5)))))
 (let ((?x4176 (bvadd (_ bv63 6) ?x4319)))
 (let ((?x3534 (stack_s x_0 w_2 x_CALLVALUE 5 ?x4176)))
 (let (($x4659 (= (stack_s x_0 w_2 x_CALLVALUE 6 (bvadd (_ bv63 6) ?x926)) (stack_s x_0 w_2 x_CALLVALUE 5 (bvadd (_ bv62 6) ?x4319)))))
 (let (($x7172 (exc_halt_s 4)))
 (let (($x5185 (not (= ((_ extract 6 6) (bvadd (_ bv1 7) (concat (_ bv0 1) (sc_s 4)))) (_ bv0 1)))))
 (let (($x2649 (not (bvsle (_ bv0 6) (bvadd (_ bv62 6) (sc_s 4))))))
 (let (($x11317 (exc_halt_s 5)))
 (let (($x8205 (= $x11317 (or $x2649 $x5185 $x7172))))
 (let (($x53 (forall ((w (_ BitVec 256)) )(let ((?x440 (storage_s x_0 w_2 x_CALLVALUE 4 w)))
 (let ((?x358 (storage_s x_0 w_2 x_CALLVALUE 5 w)))
 (= ?x358 ?x440))))
 ))
 (let (($x403 (forall ((n (_ BitVec 6)) )(let ((?x2381 (stack_s x_0 w_2 x_CALLVALUE 4 n)))
 (let ((?x1001 (stack_s x_0 w_2 x_CALLVALUE 5 n)))
 (let ((?x4305 (sc_s 4)))
 (let ((?x6763 (bvadd (_ bv62 6) ?x4305)))
 (let (($x1677 (bvsle ?x6763 n)))
 (or $x1677 (= ?x1001 ?x2381))))))))
 ))
 (let (($x2447 (= ?x4319 (bvadd (_ bv1 6) (sc_s 4)))))
 (let ((?x626 (used_gas_s x_0 w_2 x_CALLVALUE 5)))
 (let ((?x4305 (sc_s 4)))
 (let ((?x7956 (bvadd (_ bv63 6) ?x4305)))
 (let ((?x5342 (stack_s x_0 w_2 x_CALLVALUE 4 ?x7956)))
 (let ((?x6763 (bvadd (_ bv62 6) ?x4305)))
 (let ((?x1737 (stack_s x_0 w_2 x_CALLVALUE 4 ?x6763)))
 (let (($x10798 (= $x7172 (or (exc_halt_s 3) (not (bvsle (_ bv0 6) (bvadd (_ bv62 6) (sc_s 3))))))))
 (let (($x10853 (forall ((w (_ BitVec 256)) )(let ((?x450 (storage_s x_0 w_2 x_CALLVALUE 3 w)))
 (let ((?x440 (storage_s x_0 w_2 x_CALLVALUE 4 w)))
 (= ?x440 ?x450))))
 ))
 (let (($x9346 (forall ((n (_ BitVec 6)) )(let ((?x275 (sc_s 3)))
 (let ((?x4167 (bvadd (_ bv62 6) ?x275)))
 (let (($x6851 (bvsle ?x4167 n)))
 (let ((?x7934 (stack_s x_0 w_2 x_CALLVALUE 3 n)))
 (let ((?x2381 (stack_s x_0 w_2 x_CALLVALUE 4 n)))
 (or (= ?x2381 ?x7934) $x6851)))))))
 ))
 (let ((?x275 (sc_s 3)))
 (let (($x7278 (= ?x4305 ?x275)))
 (let ((?x1151 (used_gas_s x_0 w_2 x_CALLVALUE 4)))
 (let (($x10213 (not (= ((_ extract 6 6) (bvadd (_ bv1 7) (concat (_ bv0 1) (sc_s 2)))) (_ bv0 1)))))
 (let (($x247 (exc_halt_s 2)))
 (let (($x292 (exc_halt_s 3)))
 (let (($x4775 (= $x292 (or $x247 $x10213))))
 (let (($x4774 (forall ((w (_ BitVec 256)) )(let ((?x4479 (storage_s x_0 w_2 x_CALLVALUE 2 w)))
 (let ((?x450 (storage_s x_0 w_2 x_CALLVALUE 3 w)))
 (= ?x450 ?x4479))))
 ))
 (let (($x9121 (forall ((n (_ BitVec 6)) )(let ((?x8060 (stack_s x_0 w_2 x_CALLVALUE 2 n)))
 (let ((?x7934 (stack_s x_0 w_2 x_CALLVALUE 3 n)))
 (let ((?x218 (sc_s 2)))
 (let (($x3922 (bvsle ?x218 n)))
 (or $x3922 (= ?x7934 ?x8060)))))))
 ))
 (let (($x4099 (= ?x275 (bvadd (_ bv1 6) (sc_s 2)))))
 (let ((?x9066 (used_gas_s x_0 w_2 x_CALLVALUE 3)))
 (let (($x92 (= $x247 (or (exc_halt_s 1) (not (bvsle (_ bv0 6) (bvadd (_ bv62 6) (sc_s 1))))))))
 (let (($x5866 (forall ((w (_ BitVec 256)) )(let ((?x8798 (storage_s x_0 w_2 x_CALLVALUE 1 w)))
 (let ((?x4479 (storage_s x_0 w_2 x_CALLVALUE 2 w)))
 (= ?x4479 ?x8798))))
 ))
 (let (($x1187 (forall ((n (_ BitVec 6)) )(let ((?x5808 (stack_s x_0 w_2 x_CALLVALUE 1 n)))
 (let ((?x8060 (stack_s x_0 w_2 x_CALLVALUE 2 n)))
 (let ((?x154 (sc_s 1)))
 (let ((?x6309 (bvadd (_ bv62 6) ?x154)))
 (let (($x4798 (bvsle ?x6309 n)))
 (or $x4798 (= ?x8060 ?x5808))))))))
 ))
 (let ((?x154 (sc_s 1)))
 (let ((?x218 (sc_s 2)))
 (let (($x3954 (= ?x218 ?x154)))
 (let ((?x2455 (used_gas_s x_0 w_2 x_CALLVALUE 2)))
 (let (($x6601 (= (stack_s x_0 w_2 x_CALLVALUE 2 (bvadd (_ bv62 6) ?x218)) (stack_s x_0 w_2 x_CALLVALUE 1 (bvadd (_ bv63 6) ?x154)))))
 (let (($x3037 (= (stack_s x_0 w_2 x_CALLVALUE 2 (bvadd (_ bv63 6) ?x218)) (stack_s x_0 w_2 x_CALLVALUE 1 (bvadd (_ bv62 6) ?x154)))))
 (let (($x189 (exc_halt_s 1)))
 (let (($x10431 (= $x189 (or $x57 (not (= ((_ extract 6 6) (bvadd (_ bv1 7) (concat (_ bv0 1) ?x72))) (_ bv0 1)))))))
 (let (($x6197 (forall ((w (_ BitVec 256)) )(let ((?x9252 (storage_s x_0 w_2 x_CALLVALUE 0 w)))
 (let ((?x8798 (storage_s x_0 w_2 x_CALLVALUE 1 w)))
 (= ?x8798 ?x9252))))
 ))
 (let (($x9549 (forall ((n (_ BitVec 6)) )(let ((?x7414 (stack_s x_0 w_2 x_CALLVALUE 0 n)))
 (let ((?x5808 (stack_s x_0 w_2 x_CALLVALUE 1 n)))
 (let ((?x72 (sc_s 0)))
 (let (($x2932 (bvsle ?x72 n)))
 (or $x2932 (= ?x5808 ?x7414)))))))
 ))
 (let (($x6741 (= ?x154 (bvadd (_ bv1 6) ?x72))))
 (let (($x107 (forall ((w (_ BitVec 256)) )(let ((?x9252 (storage_s x_0 w_2 x_CALLVALUE 0 w)))
 (= ?x9252 (_ bv0 256))))
 ))
 (let (($x906 (= ?x10858 0)))
 (let (($x3561 (not $x57)))
 (let (($x6966 (= (stack_s x_0 w_2 x_CALLVALUE 0 (_ bv0 6)) x_0)))
 (let (($x7315 (= ?x72 (_ bv1 6))))
 (and $x7315 $x6966 $x3561 $x906 $x107 (= (stack_s x_0 w_2 x_CALLVALUE 1 ?x72) x_CALLVALUE) (= (used_gas_s x_0 w_2 x_CALLVALUE 1) (+ 2 ?x10858)) $x6741 $x9549 $x6197 $x10431 $x3037 $x6601 (= ?x2455 (+ 3 (used_gas_s x_0 w_2 x_CALLVALUE 1))) $x3954 $x1187 $x5866 $x92 (= (stack_s x_0 w_2 x_CALLVALUE 3 ?x218) w_2) (= ?x9066 (+ 3 ?x2455)) $x4099 $x9121 $x4774 $x4775 (= ?x5342 (stack_s x_0 w_2 x_CALLVALUE 3 (bvadd (_ bv62 6) ?x275))) (= ?x1737 (stack_s x_0 w_2 x_CALLVALUE 3 (bvadd (_ bv63 6) ?x275))) (= ?x1151 (+ 3 ?x9066)) $x7278 $x9346 $x10853 $x10798 (= ?x3534 ?x1737) (= (stack_s x_0 w_2 x_CALLVALUE 5 ?x6763) ?x1737) (= (stack_s x_0 w_2 x_CALLVALUE 5 ?x7956) ?x5342) (= ?x626 (+ 3 ?x1151)) $x2447 $x403 $x53 $x8205 $x4659 (= (stack_s x_0 w_2 x_CALLVALUE 6 (bvadd (_ bv62 6) ?x926)) ?x3534) $x7527 $x4127 $x2056 $x2586 $x7518 (= (stack_t x_0 w_2 x_CALLVALUE 1 ?x63) w_2) (= (used_gas_t x_0 w_2 x_CALLVALUE 1) (+ 3 ?x5752)) $x3399 $x4388 $x7729 $x7894 (= (stack_t x_0 w_2 x_CALLVALUE 2 ?x7154) w_2) (= ?x6491 (+ 3 (used_gas_t x_0 w_2 x_CALLVALUE 1))) $x10587 $x8644 $x4694 $x2267 (= (stack_t x_0 w_2 x_CALLVALUE 3 ?x6158) x_CALLVALUE) (= ?x9834 (+ 2 ?x6491)) $x1244 $x5303 $x9925 $x2497 $x4352 $x5606 $x1243 $x9680 $x9491 $x5005 $x4576 $x1018 $x7568 $x73 $x165 $x58 $x2337 $x2118 (not (and $x7899 $x3283 $x4404 $x3139))))))))))))))))))))))))))))))))))))))))))))))))))))))))))))))))))))))))))))))))))))))))))))))))))))))))))))))
 )
(check-sat)
(get-proof)
